78269758886978189095010,12,1,2,05,8,1,2,08,11,1,2,01,4,1,2,012,13,1,2,07,11,1,2,013,8,1,2,08,13,1,2,015,6,1,2,01,9,1,2,01,5,1,2,02,10,1,2,08,12,1,2,08,14,1,2,01,13,1,2,015,12,1,2,013,4,1,2,03,9,1,2,02,15,1,2,011,14,1,2,011,11,1,2,07,14,1,2,07,13,1,2,014,13,1,2,05,14,1,2,09,9,1,2,012,8,1,2,01,2,1,2,011,11,1,2,010,2,1,2,06,12,1,2,010,13,1,2,09,10,1,2,08,7,1,2,04,1,1,2,07,13,1,2,012,9,1,2,011,4,1,2,07,15,1,2,09,11,1,2,010,15,1,2,01,4,1,2,015,12,1,2,05,1,1,2,02,8,1,2,07,4,1,2,06,12,1,2,014,7,1,2,07,12,1,2,04,10,1,2,0